objective value:                     2649.05999636889
ztj02                                               1 	(obj:0)
ztj12                                               1 	(obj:0)
ztj22                                               1 	(obj:0)
ztj32                                               1 	(obj:0)
ztj40                                               1 	(obj:0)
ztj52                                               1 	(obj:0)
ztj62                                               1 	(obj:0)
ztj72                                               1 	(obj:0)
ztj82                                               1 	(obj:0)
ztj92                                               1 	(obj:0)
ztj102                                              1 	(obj:0)
ztj112                                              1 	(obj:0)
ztj122                                              1 	(obj:0)
ztj132                                              1 	(obj:0)
ztj142                                              1 	(obj:0)
ztj150                                              1 	(obj:0)
ztj162                                              1 	(obj:0)
ztj172                                              1 	(obj:0)
ztj180                                              1 	(obj:0)
ztj190                                              1 	(obj:0)
xt162                                55.5000114440918 	(obj:0)
xt172                                              74 	(obj:0)
st1                                  19.0999984741211 	(obj:0)
st2                                  21.6999969482422 	(obj:0)
st3                                  86.5999965667725 	(obj:0)
st4                                  18.7999935150146 	(obj:0)
st5                                  73.6999931335449 	(obj:0)
st6                                   65.799991607666 	(obj:0)
st7                                  42.5999946594238 	(obj:0)
st8                                  69.6999931335449 	(obj:0)
st9                                  51.0999946594238 	(obj:0)
st10                                 40.6999931335449 	(obj:0)
st11                                  51.799991607666 	(obj:0)
st12                                 46.9999885559082 	(obj:0)
st13                                 32.3999900817871 	(obj:0)
st14                                 66.3999900817871 	(obj:0)
st15                                 7.69998931884766 	(obj:0)
st16                                 37.3000011444092 	(obj:0)
st17                                 80.0000019073486 	(obj:0)
st18                                 68.9000015258789 	(obj:0)
ct0                                  160.010001369715 	(obj:1)
ct1                                  166.799999117851 	(obj:1)
ct2                                  166.799999117851 	(obj:1)
ct3                                  166.799999117851 	(obj:1)
ct5                                  166.799999117851 	(obj:1)
ct6                                  166.799999117851 	(obj:1)
ct7                                  166.799999117851 	(obj:1)
ct8                                  166.799999117851 	(obj:1)
ct9                                  166.799999117851 	(obj:1)
ct10                                 166.799999117851 	(obj:1)
ct11                                 166.799999117851 	(obj:1)
ct12                                 166.799999117851 	(obj:1)
ct13                                 166.799999117851 	(obj:1)
ct14                                 166.799999117851 	(obj:1)
ct16                                 153.850007349253 	(obj:1)
ct17                                 166.799999117851 	(obj:1)
xt02                                 64.3000030517578 	(obj:0)
xt12                                               74 	(obj:0)
xt22                                               74 	(obj:0)
xt32                                               74 	(obj:0)
xt52                                               74 	(obj:0)
xt62                                               74 	(obj:0)
xt72                                               74 	(obj:0)
xt82                                               74 	(obj:0)
xt92                                               74 	(obj:0)
xt102                                              74 	(obj:0)
xt112                                              74 	(obj:0)
xt122                                              74 	(obj:0)
xt132                                              74 	(obj:0)
xt142                                              74 	(obj:0)
rt0                                  64.3000030517578 	(obj:0)
rt1                                                74 	(obj:0)
rt2                                                74 	(obj:0)
rt3                                                74 	(obj:0)
rt5                                                74 	(obj:0)
rt6                                                74 	(obj:0)
rt7                                                74 	(obj:0)
rt8                                                74 	(obj:0)
rt9                                                74 	(obj:0)
rt10                                               74 	(obj:0)
rt11                                               74 	(obj:0)
rt12                                               74 	(obj:0)
rt13                                               74 	(obj:0)
rt14                                               74 	(obj:0)
rt16                                 55.5000114440918 	(obj:0)
rt17                                               74 	(obj:0)
objective value:                     5446.74001461029
ztj01                                               1 	(obj:0)
ztj12                                               1 	(obj:0)
ztj22                                               1 	(obj:0)
ztj32                                               1 	(obj:0)
ztj42                                               1 	(obj:0)
ztj52                                               1 	(obj:0)
ztj62                                               1 	(obj:0)
ztj72                                               1 	(obj:0)
ztj82                                               1 	(obj:0)
ztj92                                               1 	(obj:0)
ztj102                                              1 	(obj:0)
ztj112                                              1 	(obj:0)
ztj122                                              1 	(obj:0)
ztj132                                              1 	(obj:0)
ztj142                                              1 	(obj:0)
ztj152                                              1 	(obj:0)
ztj162                                              1 	(obj:0)
ztj172                                              1 	(obj:0)
ztj182                                              1 	(obj:0)
ztj192                                              1 	(obj:0)
xt152                                              74 	(obj:0)
xt162                                              74 	(obj:0)
xt172                                              74 	(obj:0)
xt182                                              74 	(obj:0)
xt192                                              74 	(obj:0)
st1                                  57.7999992370605 	(obj:0)
st2                                  95.8999996185303 	(obj:0)
st3                                               100 	(obj:0)
st4                                  64.4000015258789 	(obj:0)
st5                                  50.6000022888184 	(obj:0)
st6                                  72.6000003814697 	(obj:0)
st7                                               100 	(obj:0)
st8                                               100 	(obj:0)
st9                                  73.8999900817871 	(obj:0)
st10                                 60.8999900817871 	(obj:0)
st11                                 75.5999908447266 	(obj:0)
st12                                 81.0999908447266 	(obj:0)
st13                                 36.8999938964844 	(obj:0)
st14                                 22.3999938964844 	(obj:0)
st15                                 24.0999908447266 	(obj:0)
st16                                 34.4999923706055 	(obj:0)
st17                                 32.2999954223633 	(obj:0)
st18                                 13.5999984741211 	(obj:0)
ct0                                  188.799997329712 	(obj:1)
ct1                                  312.800001144409 	(obj:1)
ct2                                  200.000005722046 	(obj:1)
ct3                                  288.830018253326 	(obj:1)
ct4                                  200.000005722046 	(obj:1)
ct5                                  200.000005722046 	(obj:1)
ct6                                   293.99999294281 	(obj:1)
ct7                                  200.000005722046 	(obj:1)
ct8                                  261.100003242493 	(obj:1)
ct9                                   286.00996278763 	(obj:1)
ct10                                 312.800001144409 	(obj:1)
ct11                                 312.800001144409 	(obj:1)
ct12                                 312.800001144409 	(obj:1)
ct13                                 200.000005722046 	(obj:1)
ct14                                 312.800001144409 	(obj:1)
ct15                                 312.800001144409 	(obj:1)
ct16                                 312.800001144409 	(obj:1)
ct17                                 312.800001144409 	(obj:1)
ct18                                 312.800001144409 	(obj:1)
ct19                                 312.800001144409 	(obj:1)
xt01                                 46.7999992370605 	(obj:0)
xt12                                               74 	(obj:0)
xt22                                               50 	(obj:0)
xt32                                 68.9000034332275 	(obj:0)
xt42                                               50 	(obj:0)
xt52                                               50 	(obj:0)
xt62                                 69.9999980926514 	(obj:0)
xt72                                               50 	(obj:0)
xt82                                               63 	(obj:0)
xt92                                  68.299991607666 	(obj:0)
xt102                                              74 	(obj:0)
xt112                                              74 	(obj:0)
xt122                                              74 	(obj:0)
xt132                                              50 	(obj:0)
xt142                                              74 	(obj:0)
rt0                                  46.7999992370605 	(obj:0)
rt1                                                74 	(obj:0)
rt2                                                50 	(obj:0)
rt3                                  68.9000034332275 	(obj:0)
rt4                                                50 	(obj:0)
rt5                                                50 	(obj:0)
rt6                                  69.9999980926514 	(obj:0)
rt7                                                50 	(obj:0)
rt8                                                63 	(obj:0)
rt9                                   68.299991607666 	(obj:0)
rt10                                               74 	(obj:0)
rt11                                               74 	(obj:0)
rt12                                               74 	(obj:0)
rt13                                               50 	(obj:0)
rt14                                               74 	(obj:0)
rt15                                               74 	(obj:0)
rt16                                               74 	(obj:0)
rt17                                               74 	(obj:0)
rt18                                               74 	(obj:0)
rt19                                               74 	(obj:0)
objective value:                     4767.16990907669
ztj01                                               1 	(obj:0)
ztj12                                               1 	(obj:0)
ztj22                                               1 	(obj:0)
ztj31                                               1 	(obj:0)
ztj42                                               1 	(obj:0)
ztj52                                               1 	(obj:0)
ztj62                                               1 	(obj:0)
ztj72                                               1 	(obj:0)
ztj81                                               1 	(obj:0)
ztj92                                               1 	(obj:0)
ztj102                                              1 	(obj:0)
ztj112                                              1 	(obj:0)
ztj122                                              1 	(obj:0)
ztj132                                              1 	(obj:0)
ztj142                                              1 	(obj:0)
ztj152                                              1 	(obj:0)
ztj161                                              1 	(obj:0)
ztj172                                              1 	(obj:0)
ztj181                                              1 	(obj:0)
ztj192                                              1 	(obj:0)
xt152                                              74 	(obj:0)
xt161                                28.6000003814697 	(obj:0)
xt172                                              74 	(obj:0)
xt181                                              25 	(obj:0)
xt192                                              74 	(obj:0)
st1                                  30.9000015258789 	(obj:0)
st2                                  98.2000017166138 	(obj:0)
st3                                  56.2000017166138 	(obj:0)
st4                                  45.1000032424927 	(obj:0)
st5                                  62.9000024795532 	(obj:0)
st6                                  44.0999994277954 	(obj:0)
st7                                  27.1999979019165 	(obj:0)
st8                                  43.4999980926514 	(obj:0)
st9                                  38.4999980926514 	(obj:0)
st10                                 21.0999965667725 	(obj:0)
st11                                 4.59999656677245 	(obj:0)
st12                                 57.2999973297119 	(obj:0)
st13                                 32.6000003814697 	(obj:0)
st14                                 46.1000003814697 	(obj:0)
st15                                 40.1999988555908 	(obj:0)
st16                                 8.20000076293945 	(obj:0)
st17                                 56.9000015258789 	(obj:0)
st18                                0.300003051757812 	(obj:0)
ct0                                  86.7500023841858 	(obj:1)
ct1                                   290.89999294281 	(obj:1)
ct2                                   290.89999294281 	(obj:1)
ct3                                  75.0000028610229 	(obj:1)
ct4                                   290.89999294281 	(obj:1)
ct5                                   290.89999294281 	(obj:1)
ct6                                   290.89999294281 	(obj:1)
ct7                                   290.89999294281 	(obj:1)
ct8                                  75.0000028610229 	(obj:1)
ct9                                   290.89999294281 	(obj:1)
ct10                                  290.89999294281 	(obj:1)
ct11                                  290.89999294281 	(obj:1)
ct12                                  290.89999294281 	(obj:1)
ct13                                  290.89999294281 	(obj:1)
ct14                                  290.89999294281 	(obj:1)
ct15                                  290.89999294281 	(obj:1)
ct16                                 91.9200039672851 	(obj:1)
ct17                                  290.89999294281 	(obj:1)
ct18                                 75.0000028610229 	(obj:1)
ct19                                  290.89999294281 	(obj:1)
xt01                                             27.5 	(obj:0)
xt12                                               74 	(obj:0)
xt22                                               74 	(obj:0)
xt31                                               25 	(obj:0)
xt42                                               74 	(obj:0)
xt52                                               74 	(obj:0)
xt62                                               74 	(obj:0)
xt72                                               74 	(obj:0)
xt81                                               25 	(obj:0)
xt92                                               74 	(obj:0)
xt102                                              74 	(obj:0)
xt112                                              74 	(obj:0)
xt122                                              74 	(obj:0)
xt132                                              74 	(obj:0)
xt142                                              74 	(obj:0)
rt0                                              27.5 	(obj:0)
rt1                                                74 	(obj:0)
rt2                                                74 	(obj:0)
rt3                                                25 	(obj:0)
rt4                                                74 	(obj:0)
rt5                                                74 	(obj:0)
rt6                                                74 	(obj:0)
rt7                                                74 	(obj:0)
rt8                                                25 	(obj:0)
rt9                                                74 	(obj:0)
rt10                                               74 	(obj:0)
rt11                                               74 	(obj:0)
rt12                                               74 	(obj:0)
rt13                                               74 	(obj:0)
rt14                                               74 	(obj:0)
rt15                                               74 	(obj:0)
rt16                                 28.6000003814697 	(obj:0)
rt17                                               74 	(obj:0)
rt18                                               25 	(obj:0)
rt19                                               74 	(obj:0)
no solution available
